benchmarks/VRPTW/TSPTW/solution/n80w80.005.txt.solution
1 17 74 34 6 80 46 73 5 78 45 72 10 32 49 56 51 64 62 22 58 25 27 63 54 48 66 53 69 33 55 61 14 4 77 11 28 47 57 75 41 44 29 9 59 70 8 15 16 65 50 35 38 23 76 31 36 68 30 19 2 79 7 21 40 20 67 3 71 13 12 26 42 37 39 18 60 24 81 43 52 
570
